32	0

0	1	2
5	1	3
5	1	4
5	3	5	6	7
3	2	8	9
7	2	8	10
1	2	8	9
9	1	11
8	1	10
8	1	11
4	1	12
2	2	13	14
6	1	15
7	1	15
5	1	16
4	1	17
5	1	18
3	1	19
6	1	20
6	1	21
9	1	22
3	1	23
5	1	24
5	1	25
3	1	26
4	1	27
7	1	28
7	1	29
9	2	30	31
8	1	32
8	1	32
0	0
